(set-logic QF_BV)
(declare-fun _substvar_91_ () (_ BitVec 63))
(declare-fun _substvar_148_ () Bool)
(declare-fun _substvar_82_ () (_ BitVec 63))
(declare-fun _substvar_61_ () (_ BitVec 63))
(declare-fun _substvar_96_ () (_ BitVec 63))
(assert (and true true true true true true true true true true true true true true true true true true true true true true true true true true true true true true true true true true true true true true true true true true true true true true true true true true true true true true true true true true true true true true true true true true true true true true true true true true true true true true true true true true true true true true true true true true true true true true true true true true true true true true true true true true true true true true true true true true true true true true true true true true true true (= _substvar_91_ (_ bv0 63)) (ite _substvar_148_ (= _substvar_96_ (_ bv0 63)) (= _substvar_96_ (concat (_ bv0 62) (bvxor (_ bv0 1) ((_ extract 61 61) _substvar_91_))))) (= _substvar_82_ (concat ((_ extract 61 0) _substvar_96_) (bvxor ((_ extract 62 62) _substvar_96_) ((_ extract 61 61) _substvar_96_)))) (= _substvar_61_ (concat ((_ extract 61 0) _substvar_82_) (_ bv0 1))) true true true true true true true true true true true true true true true true true true true true true true true true true true true true true true true true true true true true true true true true true true true true true true true true true true true true true true true true true true true true true true true true true true true true true true true true true true true true true true true true true true true true true true true true true true true true true true true true true true true true true true true true true true true true true true true true true true true true true true true true true true true true true true true true true true true (= (= _substvar_61_ (_ bv0 63)) false)))
(check-sat)
(exit)
